c read Graph
c width = 471
c time = 1376 ms
c width = 33
c time = 2786 ms
c width = 31
c time = 7816 ms
c width = 30
c time = 10038 ms
c width = 29
c time = 14360 ms
c width = 28
c time = 18780 ms
c width = 27
c time = 35158 ms
c width = 26
c time = 40452 ms
c width = 25
c time = 61462 ms
c width = 24
c time = 81129 ms
c width = 23
c time = 109144 ms
c width = 22
c time = 256757 ms
c width = 22
c time = 259371 ms
s td 422 23 484
b 1 1 2 23
b 2 2 3 23 24
b 3 20 21 43 44
b 4 3 23 24 45
b 5 20 43 44 66
b 6 419 441 442 464
b 7 440 461 462 483
b 8 419 442 464 465
b 9 440 461 482 483
b 10 3 4 5 26
b 11 3 5 25 26 46 67
b 12 5 25 26 46 48 67 69
b 13 5 26 46 48 67 69 90
b 14 5 26 48 67 69 90 111
b 15 5 26 28 48 49 69 90 111
b 16 5 28 48 49 69 71 90 92 111
b 17 5 28 49 69 71 90 92 111 113
b 18 5 28 49 71 90 92 111 113 134
b 19 5 28 49 51 71 72 92 111 113 134
b 20 5 28 51 71 72 92 95 111 113 117 134 136 138 159
b 21 5 28 51 72 74 95 111 113 117 134 136 138 159
b 22 51 72 73 74 95
b 23 5 9 28 32 51 53 74 95 111 113 117 134 136 138 159
b 24 5 9 28 30 32 51 53 74
b 25 5 7 9 28 30 51
b 26 7 8 9 30
b 27 7 28 29 30 51
b 28 5 6 7 28
b 29 9 30 31 32 53
b 30 30 51 52 53 74
b 31 9 32 53 74 95 111 113 117 134 136 138 159 180 199 201 222
b 32 111 113 134 136 157 159 180 199 201 222
b 33 113 134 135 136 157
b 34 111 134 157 178 180 199 201 222
b 35 178 199 200 201 222
b 36 157 178 179 180 201
b 37 111 134 155 157 178 199
b 38 134 155 156 157 178
b 39 155 177 178 199
b 40 111 133 134 155
b 41 136 157 158 159 180
b 42 9 32 53 74 95 117 138 140 159 163 180 184 199 201 205 222 226 245 247 268
b 43 9 32 53 74 95 117 140 163 180 184 199 201 205 222 226 245 247 268
b 44 9 32 53 55 74 78 95 101 117 122 140 143 163 164 184 199 205 222 226 245 247 268
b 45 9 32 55 78 101 122 143 163 164 184 186 199 205 207 222 226 245 247 268
b 46 9 32 55 78 101 122 143 164 184 186 199 205 207 222 226 228 245 247 268
b 47 9 32 55 78 101 122 143 164 186 199 205 207 222 226 228 245 247 249 268
b 48 9 32 55 78 101 122 143 164 186 199 207 222 226 228 245 247 249 268 270
b 49 9 32 55 78 101 122 143 164 186 199 207 222 228 245 247 249 268 270 291
b 50 247 268 269 270 291
b 51 9 17 32 38 55 59 78 80 101 122 143 164 186 199 207 222 228 245 249 268 270 291
b 52 9 13 17 32 36 38 55 59 78 80 101
b 53 13 15 17 36 38 59
b 54 15 36 37 38 59
b 55 15 16 17 38
b 56 13 14 15 36
b 57 9 13 32 36 55 57 59 78 80 101
b 58 57 78 79 80 101
b 59 9 13 32 34 36 55 57 78
b 60 9 11 13 32 34 55
b 61 11 32 33 34 55
b 62 9 10 11 32
b 63 11 12 13 34
b 64 13 34 35 36 57
b 65 34 55 56 57 78
b 66 36 57 58 59 80
b 67 17 38 40 59 61 78 80 82 101 122 143 164 186 199 207 222 228 245 249 268 270 291
b 68 17 40 59 61 78 80 81 82 101 122 143 164 186 199 207 222 228 245 249 268 270 291
b 69 17 20 40 42 61 63 80 81 82 101 122 143 164 186 199 207 222 228 245 249 268 270 291
b 70 20 40 42 61 63 80 81 82 84 101 122 143 164 186 199 207 222 228 245 249 268 270 291
b 71 20 42 61 63 80 81 82 84 101 105 122 143 164 186 199 207 222 228 245 249 268 270 291
b 72 20 42 63 80 81 82 84 101 103 105 122 143 164 186 199 207 222 228 245 249 268 270 291
b 73 20 42 63 80 82 84 101 103 105 122 124 143 164 186 199 207 222 228 245 249 268 270 291
b 74 20 42 63 82 84 101 103 105 122 124 126 143 164 186 199 207 222 228 245 249 268 270 291
b 75 20 42 63 84 101 103 105 122 124 126 143 145 164 186 199 207 222 228 245 249 268 270 291
b 76 20 42 63 84 103 105 122 124 126 143 145 147 164 186 199 207 222 228 245 249 268 270 291
b 77 20 42 63 84 105 122 124 126 143 145 147 164 166 186 199 207 222 228 245 249 268 270 291
b 78 20 42 63 84 105 124 126 143 145 147 164 166 168 186 199 207 222 228 245 249 268 270 291
b 79 20 42 63 84 105 126 143 145 147 164 166 168 186 189 199 207 222 228 245 249 268 270 291
b 80 145 166 167 168 189
b 81 20 42 63 84 105 126 143 147 164 166 168 186 187 189 199 207 222 228 245 249 268 270 291
b 82 20 42 63 84 105 126 147 166 168 186 187 189 199 207 222 228 245 249 266 268 270 287 291
b 83 20 42 63 84 105 126 147 166 168 186 187 189 207 228 245 249 266 268 270 287 289 291 310
b 84 20 42 63 84 105 126 147 166 168 186 187 189 207 228 249 268 270 287 289 291 310 312
b 85 20 42 63 84 105 126 147 166 168 186 187 189 207 228 249 270 287 289 291 310 312 331
b 86 20 42 63 84 105 126 147 166 168 186 187 189 207 228 249 270 289 291 310 312 331 333
b 87 289 310 311 312 333
b 88 20 42 63 84 105 126 147 166 168 186 187 189 207 210 228 249 270 291 310 312 331 333
b 89 166 187 188 189 210
b 90 20 42 43 63 66 84 105 126 147 168 186 187 189 207 210 228 249 270 291 310 312 331 333
b 91 42 43 63 64 66 84 105 126 147 168 186 187 189 207 210 228 249 270 291 310 312 331 333
b 92 43 63 64 65 66 84 105 126 147 168 186 187 189 207 210 228 249 270 291 310 312 331 333
b 93 63 64 65 66 84 85 105 126 147 168 186 187 189 207 210 228 249 270 291 310 312 331 333
b 94 64 65 66 84 85 86 105 126 147 168 186 187 189 207 210 228 249 270 291 310 312 331 333
b 95 65 66 84 85 86 87 105 126 147 168 186 187 189 207 210 228 249 270 291 310 312 331 333
b 96 66 84 85 86 87 88 105 126 147 168 186 187 189 207 210 228 249 270 291 310 312 331 333
b 97 84 85 86 87 88 105 106 126 147 168 186 187 189 207 210 228 249 270 291 310 312 331 333
b 98 85 86 87 88 105 106 126 127 147 168 186 187 189 207 210 228 249 270 291 310 312 331 333
b 99 85 86 87 88 106 126 127 147 148 168 186 187 189 207 210 228 249 270 291 310 312 331 333
b 100 85 86 87 88 106 127 147 148 168 169 186 187 189 207 210 228 249 270 291 310 312 331 333
b 101 85 86 87 88 106 127 148 168 169 186 187 189 190 207 210 228 249 270 291 310 312 331 333
b 102 85 86 87 88 106 127 148 169 186 187 189 190 207 209 210 228 249 270 291 310 312 331 333
b 103 85 86 87 88 106 127 148 169 186 189 190 207 209 210 228 230 249 270 291 310 312 331 333
b 104 85 86 87 88 106 127 148 169 189 190 207 209 210 211 228 230 249 270 291 310 312 331 333
b 105 85 86 87 88 106 127 148 169 190 207 209 210 211 228 229 230 249 270 291 310 312 331 333
b 106 85 86 87 88 106 127 148 169 190 209 210 211 228 229 230 231 249 270 291 310 312 331 333
b 107 85 86 87 88 106 127 148 169 190 210 211 228 229 230 231 232 249 270 291 310 312 331 333
b 108 85 86 87 88 106 127 148 169 190 211 228 229 230 231 232 249 250 270 291 310 312 331 333
b 109 85 86 87 88 106 127 148 169 190 211 229 230 231 232 249 250 251 270 291 310 312 331 333
b 110 85 86 87 88 106 127 148 169 190 211 230 231 232 249 250 251 253 270 291 310 312 331 333
b 111 85 86 87 88 106 127 148 169 190 211 230 232 249 250 251 253 270 271 291 310 312 331 333
b 112 85 86 87 88 106 127 148 169 190 211 230 232 250 251 253 270 271 272 291 310 312 331 333
b 113 85 86 87 88 106 107 127 148 169 190 211 230 232 251 253 270 271 272 291 310 312 331 333
b 114 86 87 88 106 107 108 127 148 169 190 211 230 232 251 253 270 271 272 291 310 312 331 333
b 115 87 88 106 107 108 109 127 148 169 190 211 230 232 251 253 270 271 272 291 310 312 331 333
b 116 88 106 107 108 109 110 127 148 169 190 211 230 232 251 253 270 271 272 291 310 312 331 333
b 117 106 107 108 109 110 127 128 148 169 190 211 230 232 251 253 270 271 272 291 310 312 331 333
b 118 107 108 109 110 127 128 129 148 169 190 211 230 232 251 253 270 271 272 291 310 312 331 333
b 119 108 109 110 127 128 129 130 148 169 190 211 230 232 251 253 270 271 272 291 310 312 331 333
b 120 109 110 127 128 129 130 131 148 169 190 211 230 232 251 253 270 271 272 291 310 312 331 333
b 121 110 127 128 129 130 131 132 148 169 190 211 230 232 251 253 270 271 272 291 310 312 331 333
b 122 127 128 129 130 131 132 148 149 169 190 211 230 232 251 253 270 271 272 291 310 312 331 333
b 123 128 129 130 131 132 148 149 150 169 190 211 230 232 251 253 270 271 272 291 310 312 331 333
b 124 129 130 131 132 148 149 150 151 169 190 211 230 232 251 253 270 271 272 291 310 312 331 333
b 125 130 131 132 148 149 150 151 152 169 190 211 230 232 251 253 270 271 272 291 310 312 331 333
b 126 131 132 148 149 150 151 152 153 169 190 211 230 232 251 253 270 271 272 291 310 312 331 333
b 127 132 148 149 150 151 152 153 154 169 190 211 230 232 251 253 270 271 272 291 310 312 331 333
b 128 148 149 150 151 152 153 154 169 170 190 211 230 232 251 253 270 271 272 291 310 312 331 333
b 129 149 150 151 152 153 154 169 170 171 190 211 230 232 251 253 270 271 272 291 310 312 331 333
b 130 150 151 152 153 154 169 170 171 172 190 211 230 232 251 253 270 271 272 291 310 312 331 333
b 131 151 152 153 154 169 170 171 172 173 190 211 230 232 251 253 270 271 272 291 310 312 331 333
b 132 152 153 154 169 170 171 172 173 174 190 211 230 232 251 253 270 271 272 291 310 312 331 333
b 133 153 154 169 170 171 172 173 174 175 190 211 230 232 251 253 270 271 272 291 310 312 331 333
b 134 154 169 170 171 172 173 174 175 176 190 211 230 232 251 253 270 271 272 291 310 312 331 333
b 135 169 170 171 172 173 174 175 176 190 191 211 230 232 251 253 270 271 272 291 310 312 331 333
b 136 170 171 172 173 174 175 176 190 191 192 211 230 232 251 253 270 271 272 291 310 312 331 333
b 137 171 172 173 174 175 176 190 191 192 193 211 230 232 251 253 270 271 272 291 310 312 331 333
b 138 172 173 174 175 176 190 191 192 193 194 211 230 232 251 253 270 271 272 291 310 312 331 333
b 139 173 174 175 176 190 191 192 193 194 195 211 230 232 251 253 270 271 272 291 310 312 331 333
b 140 174 175 176 190 191 192 193 194 195 196 211 230 232 251 253 270 271 272 291 310 312 331 333
b 141 175 176 190 191 192 193 194 195 196 197 211 230 232 251 253 270 271 272 291 310 312 331 333
b 142 176 190 191 192 193 194 195 196 197 198 211 230 232 251 253 270 271 272 291 310 312 331 333
b 143 190 191 192 193 194 195 196 197 198 211 212 230 232 251 253 270 271 272 291 310 312 331 333
b 144 191 192 193 194 195 196 197 198 211 212 214 230 232 251 253 270 271 272 291 310 312 331 333
b 145 191 193 194 195 196 197 198 211 212 214 215 230 232 251 253 270 271 272 291 310 312 331 333
b 146 191 194 195 196 197 198 211 212 214 215 216 230 232 251 253 270 271 272 291 310 312 331 333
b 147 191 195 196 197 198 211 212 214 215 216 217 230 232 251 253 270 271 272 291 310 312 331 333
b 148 191 196 197 198 211 212 214 215 216 217 218 230 232 251 253 270 271 272 291 310 312 331 333
b 149 191 197 198 211 212 214 215 216 217 218 220 230 232 251 253 270 271 272 291 310 312 331 333
b 150 191 197 211 212 214 215 216 217 218 220 230 232 233 251 253 270 271 272 291 310 312 331 333
b 151 191 197 212 214 215 216 217 218 220 230 232 233 237 251 253 270 271 272 291 310 312 331 333
b 152 191 197 212 214 216 217 218 220 230 232 233 237 238 251 253 270 271 272 291 310 312 331 333
b 153 191 197 212 214 217 218 220 230 232 233 237 238 239 251 253 270 271 272 291 310 312 331 333
b 154 191 197 212 214 218 220 230 232 233 237 238 239 251 252 253 270 271 272 291 310 312 331 333
b 155 191 197 212 214 218 220 232 233 237 238 239 251 252 253 260 270 271 272 291 310 312 331 333
b 156 191 197 212 214 218 220 232 233 237 239 251 252 253 260 270 271 272 273 291 310 312 331 333
b 157 191 197 212 214 218 220 232 233 237 239 252 253 260 270 271 272 273 274 291 310 312 331 333
b 158 191 197 212 214 218 220 232 233 237 239 253 260 270 271 272 273 274 291 292 310 312 331 333
b 159 191 197 212 214 218 220 232 233 237 239 253 260 271 272 273 274 291 292 293 310 312 331 333
b 160 191 197 212 214 218 220 232 233 237 239 253 260 272 273 274 291 292 293 294 310 312 331 333
b 161 191 197 212 214 218 220 232 233 237 239 253 260 273 274 291 292 293 294 295 310 312 331 333
b 162 191 197 212 214 218 220 232 233 237 239 253 260 274 291 292 293 294 295 310 312 313 331 333
b 163 191 197 212 214 218 220 232 233 237 239 253 260 274 292 293 294 295 310 312 313 314 331 333
b 164 191 197 212 214 218 220 232 233 237 239 253 260 274 293 294 295 310 312 313 314 315 331 333
b 165 191 197 212 214 218 220 232 233 237 239 253 260 274 294 295 310 312 313 314 315 316 331 333
b 166 191 197 212 214 218 220 232 233 237 239 253 260 274 295 310 312 313 314 315 316 331 332 333
b 167 191 197 212 214 218 220 232 233 237 239 253 260 274 295 312 313 314 315 316 331 332 333 334
b 168 191 197 212 214 218 220 232 233 237 239 253 260 274 295 313 314 315 316 331 332 333 334 335
b 169 191 197 212 214 218 220 232 233 237 239 253 260 274 295 314 315 316 331 332 333 334 335 336
b 170 191 197 212 214 218 220 232 233 237 239 253 260 274 295 315 316 331 332 333 334 335 336 337
b 171 191 197 212 214 218 220 232 233 237 239 253 260 274 295 316 331 332 333 334 335 336 337 353
b 172 191 197 212 214 218 220 232 233 237 239 253 260 274 295 316 332 333 334 335 336 337 353 354
b 173 191 197 212 214 218 220 232 233 237 239 253 260 274 295 316 333 334 335 336 337 353 354 355
b 174 191 197 212 214 218 220 232 233 237 239 253 260 274 295 316 334 335 336 337 353 354 355 356
b 175 191 197 212 214 218 220 232 233 237 239 253 260 274 295 316 335 336 337 353 354 355 356 357
b 176 191 197 212 214 218 220 232 233 237 239 253 260 274 295 316 336 337 353 354 355 356 357 358
b 177 191 197 212 214 218 220 232 233 237 239 253 260 274 295 316 337 353 354 355 356 357 358 375
b 178 191 197 212 214 218 220 232 233 237 239 253 260 274 295 316 337 354 355 356 357 358 375 376
b 179 191 197 212 214 218 220 232 233 237 239 253 260 274 295 316 337 355 356 357 358 375 376 377
b 180 191 197 212 214 218 220 232 233 237 239 253 260 274 295 316 337 356 357 358 375 376 377 378
b 181 191 197 212 214 218 220 232 233 237 239 253 260 274 295 316 337 357 358 375 376 377 378 379
b 182 191 197 212 214 218 220 232 233 237 239 253 260 274 295 316 337 358 375 376 377 378 379 397
b 183 191 197 212 214 218 220 232 233 237 239 253 260 274 295 316 337 358 376 377 378 379 397 398
b 184 191 197 212 214 218 220 232 233 237 239 253 260 274 295 316 337 358 377 378 379 397 398 399
b 185 191 197 212 214 218 220 232 233 237 239 253 260 274 295 316 337 358 378 379 397 398 399 400
b 186 191 197 212 214 218 220 232 233 237 239 253 260 274 295 316 337 358 379 397 398 399 400 419
b 187 191 197 212 214 218 220 232 233 237 239 253 260 274 295 316 337 358 379 398 399 400 419 420
b 188 191 197 212 214 218 220 232 233 237 239 253 260 274 295 316 337 358 379 399 400 419 420 421
b 189 191 197 212 214 218 220 232 233 237 239 253 260 274 295 316 337 358 379 400 419 420 421 442
b 190 191 197 212 214 218 220 232 233 237 239 253 260 274 295 316 337 358 379 400 419 421 442 465
b 191 191 197 212 214 218 220 232 233 237 239 253 260 274 295 316 337 358 379 400 421 442 443 465
b 192 191 197 212 214 218 220 232 233 237 239 253 260 274 295 316 337 358 379 400 421 422 443 465
b 193 191 197 212 214 218 220 232 233 237 239 253 260 274 295 316 337 358 379 400 401 422 443 465
b 194 191 197 212 214 218 220 232 233 237 239 253 260 274 295 316 337 358 379 380 401 422 443 465
b 195 191 197 212 214 218 220 232 233 237 239 253 260 274 295 316 337 358 359 380 401 422 443 465
b 196 191 197 212 214 218 220 232 233 237 239 253 260 274 295 316 337 338 359 380 401 422 443 465
b 197 191 197 212 214 218 220 232 233 237 239 253 260 274 295 316 317 338 359 380 401 422 443 465
b 198 191 197 212 214 218 220 232 233 237 239 253 260 274 295 296 317 338 359 380 401 422 443 465
b 199 191 197 212 214 218 220 232 233 237 239 253 260 274 275 296 317 338 359 380 401 422 443 465
b 200 191 197 212 214 218 220 232 233 237 239 253 260 275 296 317 338 359 380 401 422 443 444 465
b 201 191 197 212 214 218 220 232 233 237 239 253 260 275 296 317 338 359 380 401 422 423 444 465
b 202 191 197 212 214 218 220 232 233 237 239 253 260 275 296 317 338 359 380 401 402 423 444 465
b 203 191 197 212 214 218 220 232 233 237 239 253 260 275 296 317 338 359 380 381 402 423 444 465
b 204 191 197 212 214 218 220 232 233 237 239 253 260 275 296 317 338 359 360 381 402 423 444 465
b 205 191 197 212 214 218 220 232 233 237 239 253 260 275 296 317 338 339 360 381 402 423 444 465
b 206 191 197 212 214 218 220 232 233 237 239 253 260 275 296 317 318 339 360 381 402 423 444 465
b 207 191 197 212 214 218 220 232 233 237 239 253 260 275 296 318 339 360 381 402 423 444 465 466
b 208 191 197 212 214 218 220 232 233 237 239 253 260 275 296 318 339 360 381 402 423 444 445 466
b 209 191 197 212 214 218 220 232 233 237 239 253 260 275 296 318 339 360 381 402 423 424 445 466
b 210 191 197 212 214 218 220 232 233 237 239 253 260 275 296 318 339 360 381 402 403 424 445 466
b 211 191 197 212 214 218 220 232 233 237 239 253 260 275 296 318 339 360 381 382 403 424 445 466
b 212 191 197 212 214 218 220 232 233 237 239 253 260 275 296 318 339 360 361 382 403 424 445 466
b 213 191 197 212 214 218 220 232 233 237 239 253 260 275 296 318 339 340 361 382 403 424 445 466
b 214 191 197 212 214 218 220 232 233 237 239 253 260 275 296 318 319 340 361 382 403 424 445 466
b 215 191 197 212 214 218 220 232 233 237 239 253 260 275 296 319 340 361 382 403 424 445 466 467
b 216 191 197 212 214 218 220 232 233 237 239 253 260 275 296 319 340 361 382 403 424 445 467 468
b 217 191 197 212 214 218 220 232 233 237 239 253 260 275 296 319 340 361 382 403 424 445 447 468
b 218 191 197 212 214 218 220 232 233 237 239 253 260 275 296 319 340 361 382 403 424 425 447 468
b 219 191 197 212 214 218 220 232 233 237 239 253 260 275 296 319 340 361 382 403 404 425 447 468
b 220 191 197 212 214 218 220 232 233 237 239 253 260 275 296 319 340 361 382 404 425 426 447 468
b 221 191 197 212 214 218 220 232 233 237 239 253 260 275 296 319 340 361 382 404 405 426 447 468
b 222 191 197 212 214 218 220 232 233 237 239 253 260 275 296 319 340 361 382 405 426 447 468 469
b 223 191 197 212 214 218 220 232 233 237 239 253 260 275 296 319 340 361 382 405 426 447 469 470
b 224 191 197 212 214 218 220 232 233 237 239 253 260 275 296 319 340 361 382 405 426 447 449 470
b 225 191 197 212 214 218 220 232 233 237 239 253 260 275 296 319 340 361 382 405 426 427 449 470
b 226 191 197 212 214 218 220 232 233 237 239 253 260 275 296 319 340 361 382 405 427 428 449 470
b 227 191 197 212 214 218 220 232 233 237 239 253 260 275 296 319 340 361 382 405 428 449 470 471
b 228 191 197 212 214 218 220 232 233 237 239 253 260 275 296 319 340 361 382 405 428 449 450 471
b 229 191 197 212 214 218 220 232 233 237 239 253 260 275 296 319 340 361 382 405 428 450 471 472
b 230 191 197 212 214 218 220 232 233 237 239 253 260 275 296 319 340 361 382 405 428 450 451 472
b 231 191 197 212 213 214 218 220 232 233 237 239 253 260 275 296 319 340 361 382 405 428 451 472
b 232 197 212 213 214 218 220 232 233 235 237 239 253 260 275 296 319 340 361 382 405 428 451 472
b 233 197 212 214 218 220 232 233 235 237 239 253 256 260 275 296 319 340 361 382 405 428 451 472
b 234 197 214 218 220 232 233 235 237 239 253 256 258 260 275 296 319 340 361 382 405 428 451 472
b 235 197 218 220 232 233 235 237 239 253 256 258 260 275 279 296 319 340 361 382 405 428 451 472
b 236 197 218 220 232 233 237 239 253 255 256 258 260 275 279 296 319 340 361 382 405 428 451 472
b 237 197 218 220 232 237 239 253 255 256 258 260 275 276 279 296 319 340 361 382 405 428 451 472
b 238 197 218 220 237 239 255 256 258 260 275 276 279 296 298 319 340 361 382 405 428 451 472
b 239 275 296 297 298 319
b 240 232 253 254 255 276
b 241 235 256 257 258 279
b 242 214 235 236 237 258
b 243 212 233 234 235 256
b 244 426 447 448 449 470
b 245 424 445 446 447 468
b 246 186 207 208 209 230
b 247 287 309 310 331
b 248 268 289 290 291 312
b 249 266 287 288 289 310
b 250 245 266 267 268 289
b 251 199 222 243 245 266 287
b 252 199 221 222 243
b 253 243 265 266 287
b 254 222 243 244 245 266
b 255 143 164 165 166 187
b 256 124 145 146 147 168
b 257 122 143 144 145 166
b 258 103 124 125 126 147
b 259 101 122 123 124 145
b 260 82 103 104 105 126
b 261 80 101 102 103 124
b 262 61 82 83 84 105
b 263 40 61 62 63 84
b 264 17 20 40 41 42 63
b 265 17 19 20 40 41
b 266 17 18 19 40
b 267 17 38 39 40 61
b 268 38 59 60 61 82
b 269 226 247 248 249 270
b 270 205 226 227 228 249
b 271 184 205 206 207 228
b 272 163 184 185 186 207
b 273 32 53 55 74 78 95 101 117 122 140 141 143 163 164
b 274 32 53 55 74 78 95 101 117 120 122 140 141 143 164
b 275 120 141 142 143 164
b 276 32 53 55 74 78 95 97 101 117 120 122 140 141 143
b 277 32 53 55 74 78 97 99 101 120 122 143
b 278 78 99 100 101 122
b 279 99 120 121 122 143
b 280 32 53 55 74 76 78 97 99 120
b 281 76 97 98 99 120
b 282 32 53 54 55 76
b 283 55 76 77 78 99
b 284 53 74 75 76 97
b 285 74 95 97 117 118 120 140 141
b 286 74 95 96 97 118
b 287 97 118 119 120 141
b 288 117 138 140 159 161 163 180 184 201 205 222 226 245 247 268
b 289 138 159 161 180 184 201 203 205 222 226 245 247 268
b 290 180 201 203 222 224 226 245 247 268
b 291 201 222 223 224 245
b 292 180 201 202 203 224
b 293 224 245 246 247 268
b 294 203 224 225 226 247
b 295 138 159 161 180 182 184 203 205 226
b 296 159 180 181 182 203
b 297 138 159 160 161 182
b 298 182 203 204 205 226
b 299 161 182 183 184 205
b 300 117 138 139 140 161
b 301 140 161 162 163 184
b 302 71 72 92 95 113 115 117 136 138 159
b 303 92 113 114 115 136
b 304 115 136 137 138 159
b 305 71 72 92 94 95 115 117 138
b 306 71 92 93 94 115
b 307 94 115 116 117 138
b 308 28 49 50 51 72
b 309 90 111 112 113 134
b 310 69 90 91 92 113
b 311 48 69 70 71 92
b 312 5 26 27 28 49
b 313 67 89 90 111
b 314 46 67 68 69 90
b 315 25 46 47 48 69
b 316 3 25 45 46 67
b 317 3 24 25 45 46
b 318 197 218 220 237 239 255 256 258 260 276 279 298 299 301 319 322 340 361 382 405 428 451 472
b 319 197 218 220 237 239 258 260 279 298 299 301 319 322 340 361 363 382 384 405 428 451 472
b 320 197 218 220 237 239 258 260 279 298 299 301 319 322 340 363 384 386 405 409 428 430 451 472
b 321 197 218 220 237 239 258 260 279 298 299 301 319 322 340 345 363 367 386 388 409 430 451 472
b 322 255 256 276 278 279 299 301 322
b 323 255 276 277 278 299
b 324 278 299 300 301 322
b 325 298 299 319 321 322 340 345 363 367 386 388 409
b 326 298 319 321 322 340 342 345 363 367 386 388 409
b 327 319 340 341 342 363
b 328 298 319 320 321 342
b 329 321 322 342 345 363 365 367 386 388 409
b 330 365 386 387 388 409
b 331 342 363 364 365 386
b 332 321 322 342 344 345 365 367 388
b 333 321 342 343 344 365
b 334 344 365 366 367 388
b 335 197 218 220 237 239 258 260 279 301 322 324 345 367 388 409 430 451 472
b 336 197 218 220 237 239 258 260 279 285 301 306 308 324 325 327 345 348 367 388 409 430 451 472
b 337 285 306 308 324 325 327 345 348 367 388 390 409 413 430 434 451 455 472 476
b 338 367 388 390 409 413 430 432 434 451 455 472 476
b 339 409 430 432 451 453 455 472 476
b 340 430 451 453 472 474 476
b 341 451 472 473 474
b 342 453 474 475 476
b 343 430 451 452 453 474
b 344 409 430 431 432 453
b 345 432 453 454 455 476
b 346 367 388 390 409 411 413 432 434 455
b 347 390 411 412 413 434
b 348 411 432 433 434 455
b 349 367 388 389 390 411
b 350 388 409 410 411 432
b 351 285 306 308 324 325 327 345 348 367 370 390 393 413 414 434 455 476
b 352 324 325 345 347 348 367 370 390 393 413 414
b 353 324 345 347 367 368 370 390 393 413 414
b 354 324 345 346 347 368
b 355 347 368 370 390 391 393 413 414
b 356 347 368 369 370 391
b 357 370 391 392 393 414
b 358 285 306 308 327 348 370 373 393 394 396 413 414 434 455 476
b 359 373 393 394 396 413 414 434 455 457 476 480
b 360 434 455 457 476 478 480
b 361 455 476 477 478
b 362 457 478 479 480
b 363 434 455 456 457 478
b 364 373 393 394 396 413 414 434 436 457 480
b 365 413 434 435 436 457
b 366 373 393 394 396 414 436 457 459 480
b 367 436 457 458 459 480
b 368 373 393 394 396 414 436 437 459 480
b 369 373 393 394 396 414 416 437 459 480
b 370 393 414 415 416 437
b 371 373 394 396 416 417 437 459 480
b 372 373 394 395 396 417
b 373 396 416 417 437 459 480 482
b 374 459 480 481 482
b 375 396 416 417 437 459 460 482
b 376 396 416 417 437 439 460 482
b 377 396 417 439 440 460 482
b 378 396 417 418 440
b 379 439 440 460 461 482
b 380 416 437 438 439 460
b 381 285 306 308 327 348 350 370 373 393 394 396
b 382 327 348 350 370 371 373 393 394
b 383 350 371 372 373 394
b 384 327 348 349 350 371
b 385 285 306 308 327 329 350 373 396
b 386 308 329 350 352 373 396
b 387 308 329 330 352
b 388 329 350 351 352 373
b 389 352 373 374 396
b 390 285 306 307 308 329
b 391 306 327 328 329 350
b 392 197 218 220 237 239 258 260 279 283 285 301 306 308 324 325 327 348
b 393 197 218 220 239 260 262 283 285 306 308
b 394 197 218 220 239 241 262 285 308
b 395 197 218 219 220 241
b 396 220 241 262 264 285 308
b 397 264 285 286 308
b 398 241 262 263 264 285
b 399 220 241 242 264
b 400 218 239 240 241 262
b 401 239 260 261 262 283
b 402 262 283 284 285 306
b 403 237 258 260 279 283 301 304 306 324 325 327 348
b 404 304 325 326 327 348
b 405 237 258 260 279 281 283 301 304 324 325
b 406 260 281 282 283 304
b 407 237 258 259 260 281
b 408 258 279 281 301 302 304 324 325
b 409 281 302 303 304 325
b 410 258 279 280 281 302
b 411 283 304 305 306 327
b 412 301 322 323 324 345
b 413 361 382 383 384 405
b 414 340 361 362 363 384
b 415 363 384 386 405 407 409 428 430 451
b 416 384 405 406 407 428
b 417 407 428 429 430 451
b 418 363 384 385 386 407
b 419 386 407 408 409 430
b 420 462 483 484
b 421 441 463 464
b 422 21 22 44
1 2
2 4
3 422
3 5
4 317
5 90
6 421
6 8
7 420
7 9
8 190
9 379
10 11
11 316
11 12
12 315
12 13
13 314
13 14
14 313
14 15
15 312
15 16
16 311
16 17
17 310
17 18
18 309
18 19
19 308
19 20
20 302
20 21
21 23
21 22
23 31
23 24
24 29
24 30
24 25
25 28
25 26
25 27
31 42
31 32
32 33
32 34
32 41
34 35
34 36
34 37
37 40
37 39
37 38
42 288
42 44
42 43
44 273
44 45
45 272
45 46
46 271
46 47
47 270
47 48
48 269
48 49
49 51
49 50
51 67
51 52
52 57
52 53
53 56
53 55
53 54
57 58
57 59
57 66
59 64
59 65
59 60
60 62
60 63
60 61
67 267
67 268
67 68
68 69
69 264
69 70
70 263
70 71
71 262
71 72
72 73
73 261
73 74
74 260
74 75
75 259
75 76
76 258
76 77
77 257
77 78
78 256
78 79
79 81
79 80
81 255
81 82
82 251
82 83
83 249
83 250
83 84
84 248
84 85
85 247
85 86
86 88
86 87
88 90
88 89
90 91
91 92
92 93
93 94
94 95
95 96
96 97
97 98
98 99
99 100
100 101
101 102
102 103
103 246
103 104
104 105
105 106
106 107
107 108
108 109
109 110
110 111
111 112
112 113
113 114
114 115
115 116
116 117
117 118
118 119
119 120
120 121
121 122
122 123
123 124
124 125
125 126
126 127
127 128
128 129
129 130
130 131
131 132
132 133
133 134
134 135
135 136
136 137
137 138
138 139
139 140
140 141
141 142
142 143
143 144
144 145
145 146
146 147
147 148
148 149
149 150
150 151
151 152
152 153
153 154
154 155
155 156
156 157
157 158
158 159
159 160
160 161
161 162
162 163
163 164
164 165
165 166
166 167
167 168
168 169
169 170
170 171
171 172
172 173
173 174
174 175
175 176
176 177
177 178
178 179
179 180
180 181
181 182
182 183
183 184
184 185
185 186
186 187
187 188
188 189
189 190
190 191
191 192
192 193
193 194
194 195
195 196
196 197
197 198
198 199
199 200
200 201
201 202
202 203
203 204
204 205
205 206
206 207
207 208
208 209
209 210
210 211
211 212
212 213
213 214
214 215
215 216
216 217
217 245
217 218
218 219
219 220
220 221
221 222
222 223
223 224
224 244
224 225
225 226
226 227
227 228
228 229
229 230
230 231
231 232
232 233
233 243
233 234
234 242
234 235
235 241
235 236
236 237
237 240
237 238
238 318
238 239
251 253
251 254
251 252
264 265
265 266
273 274
274 275
274 276
276 285
276 277
277 278
277 279
277 280
280 282
280 284
280 283
280 281
285 286
285 287
288 289
288 300
288 301
289 290
289 295
290 291
290 292
290 293
290 294
295 296
295 297
295 298
295 299
302 303
302 304
302 305
305 306
305 307
316 317
318 322
318 319
319 413
319 414
319 320
320 415
320 321
321 335
321 325
322 324
322 323
325 326
326 327
326 328
326 329
329 330
329 331
329 332
332 334
332 333
335 412
335 336
336 392
336 337
337 338
337 351
338 339
338 346
339 345
339 344
339 340
340 341
340 342
340 343
346 348
346 350
346 347
346 349
351 352
351 358
352 353
353 355
353 354
355 356
355 357
358 359
358 381
359 360
359 364
360 361
360 362
360 363
364 365
364 366
366 367
366 368
368 369
369 370
369 371
371 372
371 373
373 374
373 375
375 376
376 380
376 377
377 378
377 379
381 385
381 382
382 384
382 383
385 390
385 391
385 386
386 387
386 389
386 388
392 393
392 403
393 401
393 402
393 394
394 395
394 396
394 400
396 399
396 397
396 398
403 404
403 405
403 411
405 407
405 406
405 408
408 410
408 409
415 418
415 419
415 416
415 417
